 20 10
 5 8 3 2 10 4 6 7 9 1
 5
 1 2 3 4 5
 5
 6 7 8 9 10
 6
 1 3 5 7 9 2
 6
 2 4 6 8 10 1
 5
 1 2 6 7 10
 5
 3 4 8 9 5
 7
 1 2 3 4 5 6 7
 7
 4 5 6 7 8 9 10
 5
 1 3 5 8 10
 5
 2 4 6 7 9
 6
 1 2 3 8 9 10
 6
 4 5 6 7 1 2
 5
 3 5 7 9 10
 5
 1 2 4 6 8
 6
 1 4 5 7 8 10
 6
 2 3 6 9 1 5
 5
 7 8 9 10 1
 5
 2 3 4 5 6
 6
 1 3 5 7 9 10
 6
 2 4 6 8 1 3